581
330.0 542.0 
340.0 489.0 
360.0 519.0 
400.0 530.0 
410.0 516.0 
400.0 473.0 
400.0 530.0 
420.0 553.0 
430.0 497.0 
390.0 485.0 
390.0 487.0 
410.0 510.0 
410.0 510.0 
360.0 415.0 
390.0 452.0 
360.0 421.0 
370.0 400.0 
420.0 470.0 
390.0 447.0 
380.0 393.0 
410.0 473.0 
390.0 430.0 
410.0 479.0 
360.0 372.0 
410.0 412.0 
450.0 432.0 
430.0 354.0 
440.0 339.0 
330.0 542.0 
340.0 489.0 
360.0 519.0 
410.0 516.0 
420.0 553.0 
390.0 487.0 
410.0 510.0 
400.0 530.0 
430.0 497.0 
400.0 530.0 
360.0 415.0 
370.0 400.0 
390.0 452.0 
360.0 421.0 
360.0 415.0 
390.0 447.0 
390.0 430.0 
420.0 470.0 
410.0 473.0 
380.0 393.0 
360.0 372.0 
450.0 432.0 
430.0 407.0 
460.0 384.0 
440.0 339.0 
330.0 542.0 
340.0 489.0 
360.0 519.0 
430.0 497.0 
410.0 516.0 
390.0 487.0 
400.0 530.0 
400.0 473.0 
420.0 553.0 
410.0 510.0 
410.0 510.0 
360.0 415.0 
390.0 452.0 
370.0 400.0 
360.0 415.0 
390.0 430.0 
420.0 470.0 
380.0 393.0 
410.0 473.0 
390.0 447.0 
460.0 466.0 
420.0 456.0 
450.0 432.0 
430.0 407.0 
430.0 354.0 
440.0 339.0 
330.0 542.0 
340.0 489.0 
360.0 519.0 
430.0 497.0 
410.0 516.0 
410.0 510.0 
420.0 553.0 
400.0 530.0 
390.0 487.0 
390.0 487.0 
400.0 530.0 
360.0 415.0 
370.0 400.0 
360.0 421.0 
360.0 415.0 
420.0 470.0 
410.0 473.0 
390.0 447.0 
380.0 393.0 
390.0 430.0 
410.0 479.0 
390.0 400.0 
450.0 432.0 
430.0 407.0 
430.0 354.0 
440.0 339.0 
470.0 425.0 
330.0 542.0 
340.0 489.0 
360.0 519.0 
410.0 516.0 
390.0 487.0 
420.0 553.0 
400.0 530.0 
400.0 473.0 
400.0 530.0 
410.0 510.0 
430.0 497.0 
360.0 415.0 
360.0 415.0 
370.0 400.0 
390.0 452.0 
360.0 421.0 
390.0 447.0 
380.0 393.0 
420.0 470.0 
410.0 473.0 
390.0 430.0 
380.0 391.0 
430.0 407.0 
450.0 432.0 
460.0 438.0 
440.0 339.0 
330.0 542.0 
340.0 489.0 
360.0 519.0 
420.0 553.0 
410.0 516.0 
430.0 497.0 
400.0 530.0 
410.0 510.0 
390.0 452.0 
360.0 415.0 
360.0 421.0 
360.0 415.0 
370.0 400.0 
420.0 470.0 
390.0 430.0 
410.0 473.0 
390.0 447.0 
360.0 372.0 
410.0 425.0 
390.0 400.0 
450.0 432.0 
430.0 407.0 
430.0 354.0 
440.0 339.0 
440.0 356.0 
330.0 542.0 
340.0 489.0 
360.0 519.0 
410.0 516.0 
400.0 530.0 
420.0 553.0 
430.0 497.0 
390.0 487.0 
410.0 510.0 
400.0 473.0 
360.0 415.0 
360.0 421.0 
370.0 400.0 
390.0 452.0 
360.0 415.0 
420.0 470.0 
390.0 447.0 
410.0 473.0 
380.0 393.0 
390.0 430.0 
410.0 479.0 
380.0 391.0 
430.0 407.0 
450.0 432.0 
460.0 384.0 
440.0 339.0 
330.0 542.0 
340.0 489.0 
410.0 516.0 
400.0 530.0 
420.0 553.0 
410.0 510.0 
400.0 473.0 
390.0 487.0 
410.0 510.0 
400.0 530.0 
370.0 400.0 
360.0 415.0 
360.0 421.0 
390.0 452.0 
390.0 447.0 
420.0 470.0 
410.0 473.0 
390.0 430.0 
360.0 372.0 
410.0 425.0 
390.0 400.0 
450.0 432.0 
460.0 438.0 
440.0 339.0 
330.0 542.0 
340.0 489.0 
360.0 519.0 
400.0 530.0 
400.0 473.0 
410.0 510.0 
410.0 510.0 
410.0 516.0 
420.0 553.0 
390.0 487.0 
400.0 530.0 
370.0 400.0 
360.0 415.0 
360.0 415.0 
390.0 452.0 
360.0 421.0 
410.0 473.0 
420.0 470.0 
390.0 447.0 
390.0 430.0 
380.0 393.0 
390.0 400.0 
450.0 432.0 
460.0 384.0 
440.0 339.0 
330.0 542.0 
340.0 489.0 
360.0 519.0 
420.0 553.0 
390.0 487.0 
400.0 530.0 
410.0 516.0 
400.0 530.0 
410.0 510.0 
400.0 473.0 
430.0 497.0 
400.0 482.0 
360.0 415.0 
360.0 415.0 
360.0 421.0 
410.0 473.0 
390.0 430.0 
390.0 447.0 
420.0 470.0 
410.0 479.0 
380.0 393.0 
360.0 372.0 
390.0 400.0 
410.0 412.0 
430.0 407.0 
450.0 432.0 
460.0 438.0 
440.0 339.0 
330.0 542.0 
360.0 519.0 
340.0 489.0 
410.0 510.0 
410.0 510.0 
390.0 487.0 
400.0 530.0 
400.0 473.0 
410.0 516.0 
430.0 497.0 
420.0 553.0 
400.0 530.0 
390.0 487.0 
370.0 462.0 
390.0 485.0 
360.0 415.0 
390.0 452.0 
360.0 415.0 
370.0 400.0 
360.0 421.0 
420.0 470.0 
410.0 473.0 
360.0 428.0 
390.0 447.0 
390.0 430.0 
410.0 479.0 
380.0 393.0 
360.0 372.0 
410.0 425.0 
380.0 411.0 
450.0 432.0 
430.0 407.0 
330.0 542.0 
340.0 489.0 
360.0 519.0 
400.0 530.0 
400.0 530.0 
410.0 510.0 
410.0 516.0 
420.0 553.0 
370.0 462.0 
390.0 487.0 
400.0 473.0 
430.0 497.0 
410.0 510.0 
390.0 485.0 
390.0 487.0 
360.0 415.0 
390.0 452.0 
370.0 400.0 
360.0 421.0 
360.0 415.0 
410.0 473.0 
390.0 430.0 
390.0 447.0 
420.0 470.0 
410.0 479.0 
380.0 393.0 
360.0 428.0 
410.0 425.0 
380.0 411.0 
360.0 372.0 
450.0 432.0 
430.0 407.0 
440.0 356.0 
330.0 542.0 
360.0 519.0 
340.0 489.0 
410.0 510.0 
410.0 510.0 
400.0 530.0 
390.0 487.0 
400.0 473.0 
410.0 516.0 
370.0 462.0 
390.0 487.0 
400.0 530.0 
390.0 485.0 
360.0 415.0 
360.0 415.0 
370.0 400.0 
390.0 452.0 
360.0 421.0 
390.0 447.0 
410.0 473.0 
390.0 430.0 
380.0 393.0 
420.0 470.0 
410.0 479.0 
360.0 428.0 
380.0 411.0 
360.0 372.0 
450.0 432.0 
430.0 353.0 
330.0 542.0 
340.0 489.0 
360.0 519.0 
410.0 510.0 
410.0 510.0 
390.0 487.0 
370.0 462.0 
410.0 516.0 
400.0 473.0 
400.0 530.0 
420.0 553.0 
400.0 530.0 
390.0 487.0 
430.0 497.0 
370.0 400.0 
360.0 415.0 
360.0 421.0 
390.0 452.0 
360.0 415.0 
410.0 473.0 
390.0 447.0 
380.0 393.0 
410.0 479.0 
390.0 430.0 
420.0 470.0 
360.0 428.0 
380.0 411.0 
360.0 372.0 
410.0 425.0 
450.0 432.0 
460.0 438.0 
470.0 418.0 
450.0 392.0 
330.0 542.0 
340.0 489.0 
360.0 519.0 
410.0 510.0 
400.0 530.0 
410.0 510.0 
400.0 473.0 
410.0 516.0 
390.0 487.0 
370.0 462.0 
390.0 487.0 
400.0 530.0 
420.0 553.0 
430.0 497.0 
400.0 482.0 
370.0 400.0 
360.0 421.0 
360.0 415.0 
360.0 415.0 
390.0 452.0 
410.0 479.0 
420.0 470.0 
380.0 393.0 
390.0 447.0 
390.0 430.0 
410.0 473.0 
390.0 402.0 
360.0 372.0 
410.0 425.0 
380.0 411.0 
450.0 432.0 
430.0 407.0 
460.0 438.0 
470.0 418.0 
330.0 542.0 
340.0 489.0 
360.0 519.0 
400.0 530.0 
410.0 516.0 
400.0 473.0 
410.0 510.0 
410.0 510.0 
390.0 487.0 
390.0 487.0 
370.0 462.0 
420.0 553.0 
400.0 530.0 
430.0 497.0 
360.0 415.0 
360.0 415.0 
370.0 400.0 
360.0 421.0 
390.0 452.0 
410.0 473.0 
380.0 393.0 
390.0 430.0 
390.0 447.0 
420.0 470.0 
360.0 428.0 
410.0 479.0 
410.0 425.0 
380.0 411.0 
360.0 372.0 
450.0 432.0 
430.0 407.0 
330.0 542.0 
340.0 489.0 
360.0 519.0 
410.0 510.0 
400.0 530.0 
410.0 510.0 
410.0 516.0 
400.0 473.0 
390.0 487.0 
370.0 462.0 
420.0 553.0 
400.0 530.0 
390.0 487.0 
430.0 497.0 
360.0 415.0 
360.0 415.0 
390.0 452.0 
370.0 400.0 
360.0 421.0 
390.0 447.0 
390.0 430.0 
410.0 473.0 
420.0 470.0 
410.0 479.0 
380.0 393.0 
360.0 428.0 
410.0 425.0 
380.0 411.0 
360.0 372.0 
450.0 432.0 
430.0 407.0 
460.0 438.0 
470.0 418.0 
330.0 542.0 
340.0 489.0 
360.0 519.0 
370.0 462.0 
390.0 487.0 
400.0 530.0 
410.0 510.0 
410.0 510.0 
410.0 516.0 
400.0 473.0 
420.0 553.0 
400.0 530.0 
390.0 487.0 
350.0 476.0 
350.0 476.0 
430.0 497.0 
360.0 415.0 
370.0 400.0 
390.0 452.0 
360.0 421.0 
360.0 415.0 
390.0 430.0 
390.0 447.0 
380.0 393.0 
410.0 479.0 
410.0 473.0 
420.0 470.0 
360.0 428.0 
380.0 411.0 
410.0 425.0 
360.0 372.0 
450.0 432.0 
430.0 407.0 
330.0 542.0 
340.0 489.0 
360.0 519.0 
400.0 530.0 
410.0 516.0 
400.0 473.0 
410.0 510.0 
390.0 487.0 
410.0 510.0 
430.0 497.0 
420.0 553.0 
400.0 530.0 
390.0 487.0 
370.0 462.0 
350.0 476.0 
350.0 476.0 
360.0 415.0 
360.0 415.0 
370.0 400.0 
360.0 421.0 
390.0 452.0 
390.0 430.0 
390.0 447.0 
410.0 479.0 
380.0 393.0 
410.0 473.0 
420.0 470.0 
360.0 428.0 
410.0 425.0 
380.0 411.0 
360.0 372.0 
450.0 432.0 
460.0 438.0 
330.0 542.0 
340.0 489.0 
360.0 519.0 
400.0 530.0 
430.0 497.0 
410.0 510.0 
390.0 487.0 
370.0 462.0 
390.0 487.0 
410.0 510.0 
410.0 516.0 
400.0 473.0 
390.0 485.0 
360.0 415.0 
360.0 415.0 
370.0 400.0 
360.0 421.0 
390.0 452.0 
390.0 430.0 
390.0 447.0 
410.0 473.0 
380.0 393.0 
420.0 470.0 
410.0 479.0 
360.0 428.0 
380.0 411.0 
410.0 425.0 
360.0 372.0 
450.0 432.0 
430.0 353.0 

0 23 26 22 31 25 29 28 11 30 7 1 5 12 2 3 13 27 4 32 
0 23 26 22 31 25 28 11 30 7 1 5 2 12 19 3 13 27 32 
0 23 26 22 31 25 28 11 30 7 1 5 12 19 2 3 13 27 4 32 
0 22 26 23 21 6 4 27 13 3 2 19 12 5 1 7 30 28 25 31 32 
0 23 21 6 4 26 13 27 3 2 19 12 5 1 7 30 28 29 25 31 32 
0 23 26 21 6 4 27 13 3 2 19 12 5 1 7 30 28 29 25 32 
0 23 21 6 4 26 22 3 13 27 19 12 2 5 1 7 30 28 25 31 32 
0 23 21 6 4 27 3 13 26 22 2 19 12 5 1 7 30 28 29 25 31 32 
0 23 21 6 4 27 13 3 2 19 12 5 1 7 30 11 28 29 25 26 32 
0 23 22 26 21 6 4 27 13 3 19 12 2 5 1 7 28 29 25 32 
0 23 21 6 4 26 22 13 27 3 19 12 2 5 1 7 30 28 25 32 
0 23 21 6 4 26 22 13 27 3 2 19 12 5 1 7 30 28 29 25 32 
0 23 22 26 21 6 4 27 13 3 2 19 12 5 1 7 30 28 29 25 32 
0 22 26 23 21 6 4 27 13 3 2 12 15 14 5 1 25 32 
0 23 21 6 4 27 13 3 2 12 15 14 5 1 7 28 25 31 32 
0 23 26 21 6 4 27 13 3 2 12 15 14 5 1 25 31 32 
0 23 21 6 4 26 13 27 3 2 12 15 14 5 1 7 31 32 
0 23 21 6 4 27 13 3 2 19 12 14 5 1 7 30 28 25 31 32 
0 22 26 23 21 6 4 27 13 3 2 19 12 14 5 1 28 25 32 
0 23 26 21 6 4 27 13 3 2 19 12 14 5 1 7 31 32 
0 23 21 6 4 26 22 13 27 3 2 19 12 14 5 1 7 28 25 32 
0 23 22 26 21 6 4 27 13 3 2 19 12 14 5 1 7 31 32 
0 23 21 6 4 26 13 27 3 2 19 12 14 5 1 7 28 25 31 32 
0 22 23 21 6 4 27 13 3 19 16 12 2 5 1 25 32 
0 22 26 23 21 6 4 27 13 3 19 16 15 12 5 1 7 31 32 
0 23 21 6 4 27 13 3 2 19 16 15 12 5 1 7 30 28 25 32 
0 23 21 6 4 13 27 19 16 15 14 12 2 5 1 7 31 32 
0 23 21 6 4 13 3 19 16 15 14 12 2 5 1 7 31 32 
0 23 26 22 31 25 29 28 11 30 7 1 5 12 2 3 13 27 4 32 
0 23 26 22 31 25 28 11 30 7 1 5 2 12 19 3 13 27 32 
0 23 26 22 31 25 28 11 30 7 1 5 12 19 2 3 13 27 4 32 
0 23 21 6 4 26 13 27 3 2 19 12 5 1 7 30 28 29 25 31 32 
0 23 21 6 4 27 3 13 26 22 2 19 12 5 1 7 30 28 29 25 31 32 
0 23 21 6 4 26 22 13 27 3 19 12 2 5 1 7 30 28 25 32 
0 23 22 26 21 6 4 27 13 3 2 19 12 5 1 7 30 28 29 25 32 
0 22 26 23 21 6 4 27 13 3 2 19 12 5 1 7 30 28 25 31 32 
0 23 21 6 4 27 13 3 2 19 12 5 1 7 30 11 28 29 25 26 32 
0 23 21 6 4 26 22 3 13 27 19 12 2 5 1 7 30 28 25 31 32 
0 23 22 26 21 6 4 27 13 3 2 12 15 14 5 1 25 32 
0 23 21 6 4 26 13 27 3 2 12 15 14 5 1 7 31 32 
0 23 21 6 4 27 13 3 2 12 15 14 5 1 7 28 25 31 32 
0 23 26 21 6 4 27 13 3 2 12 15 14 5 1 25 31 32 
0 22 26 23 21 6 4 27 13 3 2 12 15 14 5 1 25 32 
0 22 26 23 21 6 4 27 13 3 2 19 12 14 5 1 28 25 32 
0 23 22 26 21 6 4 27 13 3 2 19 12 14 5 1 7 31 32 
0 23 21 6 4 27 13 3 2 19 12 14 5 1 7 30 28 25 31 32 
0 23 21 6 4 26 22 13 27 3 2 19 12 14 5 1 7 28 25 32 
0 23 26 21 6 4 27 13 3 2 19 12 14 5 1 7 31 32 
0 22 23 21 6 4 27 13 3 19 16 12 2 5 1 25 32 
0 23 21 6 4 27 13 3 2 19 16 15 12 5 1 7 30 28 25 32 
0 23 21 6 4 27 13 3 19 16 15 12 2 5 1 7 28 25 32 
0 23 21 6 4 13 3 19 16 15 14 12 5 1 7 30 28 25 32 
0 23 21 6 4 13 3 19 16 15 14 12 2 5 1 7 31 32 
0 23 26 22 31 25 29 28 11 30 7 1 5 12 2 3 13 27 4 32 
0 23 26 22 31 25 28 11 30 7 1 5 2 12 19 3 13 27 32 
0 23 26 22 31 25 28 11 30 7 1 5 12 19 2 3 13 27 4 32 
0 23 21 6 4 27 13 3 2 19 12 5 1 7 30 11 28 29 25 26 32 
0 23 21 6 4 26 13 27 3 2 19 12 5 1 7 30 28 29 25 31 32 
0 23 21 6 4 26 22 13 27 3 19 12 2 5 1 7 30 28 25 32 
0 22 26 23 21 6 4 27 13 3 2 19 12 5 1 7 30 28 25 31 32 
0 23 26 21 6 4 27 13 3 2 19 12 5 1 7 30 28 29 25 32 
0 23 21 6 4 27 3 13 26 22 2 19 12 5 1 7 30 28 29 25 31 32 
0 23 22 26 21 6 4 27 13 3 2 19 12 5 1 7 30 28 29 25 32 
0 23 21 6 4 26 22 13 27 3 2 19 12 5 1 7 30 28 29 25 32 
0 22 26 23 21 6 4 27 13 3 2 12 15 14 5 1 25 32 
0 23 21 6 4 27 13 3 2 12 15 14 5 1 7 28 25 31 32 
0 23 21 6 4 26 13 27 3 2 12 15 14 5 1 7 31 32 
0 23 22 26 21 6 4 27 13 3 2 12 15 14 5 1 25 32 
0 23 22 26 21 6 4 27 13 3 2 19 12 14 5 1 7 31 32 
0 23 21 6 4 27 13 3 2 19 12 14 5 1 7 30 28 25 31 32 
0 23 26 21 6 4 27 13 3 2 19 12 14 5 1 7 31 32 
0 23 21 6 4 26 22 13 27 3 2 19 12 14 5 1 7 28 25 32 
0 22 26 23 21 6 4 27 13 3 2 19 12 14 5 1 28 25 32 
0 23 21 6 4 27 13 3 2 19 16 15 12 5 1 7 30 28 25 26 32 
0 22 26 23 21 6 4 27 13 3 2 19 16 15 12 5 1 25 31 32 
0 23 21 6 4 27 13 3 2 19 16 15 12 5 1 7 30 28 25 32 
0 23 21 6 4 27 13 3 19 16 15 12 2 5 1 7 28 25 32 
0 23 21 6 4 13 27 19 16 15 14 12 2 5 1 7 31 32 
0 23 21 6 4 13 3 19 16 15 14 12 2 5 1 7 31 32 
0 23 26 22 31 25 29 28 11 30 7 1 5 12 2 3 13 27 4 32 
0 23 26 22 31 25 28 11 30 7 1 5 2 12 19 3 13 27 32 
0 23 26 22 31 25 28 11 30 7 1 5 12 19 2 3 13 27 4 32 
0 23 21 6 4 27 13 3 2 19 12 5 1 7 30 11 28 29 25 26 32 
0 23 21 6 4 26 13 27 3 2 19 12 5 1 7 30 28 29 25 31 32 
0 23 21 6 4 26 22 13 27 3 2 19 12 5 1 7 30 28 29 25 32 
0 23 21 6 4 27 3 13 26 22 2 19 12 5 1 7 30 28 29 25 31 32 
0 23 21 6 4 26 22 3 13 27 19 12 2 5 1 7 30 28 25 31 32 
0 22 23 21 6 4 26 13 27 3 2 19 12 5 1 7 30 28 25 32 
0 23 21 6 4 26 22 13 27 3 19 12 2 5 1 7 30 28 25 32 
0 22 26 23 21 6 4 27 13 3 2 19 12 5 1 7 30 28 25 31 32 
0 22 26 23 21 6 4 27 13 3 2 12 15 14 5 1 25 32 
0 23 21 6 4 26 13 27 3 2 12 15 14 5 1 7 31 32 
0 23 26 21 6 4 27 13 3 2 12 15 14 5 1 25 31 32 
0 23 22 26 21 6 4 27 13 3 2 12 15 14 5 1 25 32 
0 23 21 6 4 27 13 3 2 19 12 14 5 1 7 30 28 25 31 32 
0 23 21 6 4 26 22 13 27 3 2 19 12 14 5 1 7 28 25 32 
0 22 26 23 21 6 4 27 13 3 2 19 12 14 5 1 28 25 32 
0 23 26 21 6 4 27 13 3 2 19 12 14 5 1 7 31 32 
0 23 22 26 21 6 4 27 13 3 2 19 12 14 5 1 7 31 32 
0 23 21 6 4 26 13 27 3 2 19 12 14 5 1 7 28 25 31 32 
0 23 21 6 4 27 13 3 19 16 12 2 5 1 7 28 25 32 
0 23 21 6 4 27 13 3 2 19 16 15 12 5 1 7 30 28 25 32 
0 23 21 6 4 27 13 3 19 16 15 12 2 5 1 7 28 25 32 
0 23 21 6 4 13 27 19 16 15 14 12 2 5 1 7 31 32 
0 23 21 6 4 13 3 19 16 15 14 12 2 5 1 7 31 32 
0 23 21 6 4 13 3 2 19 16 15 14 12 5 1 7 28 25 31 32 
0 23 26 22 31 25 29 28 11 30 7 1 5 12 2 3 13 27 4 32 
0 23 26 22 31 25 28 11 30 7 1 5 2 12 19 3 13 27 32 
0 23 26 22 31 25 28 11 30 7 1 5 12 19 2 3 13 27 4 32 
0 23 21 6 4 26 13 27 3 2 19 12 5 1 7 30 28 29 25 31 32 
0 23 21 6 4 26 22 13 27 3 19 12 2 5 1 7 30 28 25 32 
0 23 21 6 4 27 3 13 26 22 2 19 12 5 1 7 30 28 29 25 31 32 
0 22 26 23 21 6 4 27 13 3 2 19 12 5 1 7 30 28 25 31 32 
0 23 26 21 6 4 27 13 3 2 19 12 5 1 7 30 28 29 25 32 
0 23 21 6 4 26 22 3 13 27 19 12 2 5 1 7 30 28 25 31 32 
0 23 22 26 21 6 4 27 13 3 2 19 12 5 1 7 30 28 29 25 32 
0 23 21 6 4 27 13 3 2 19 12 5 1 7 30 11 28 29 25 26 32 
0 22 26 23 21 6 4 27 13 3 2 12 15 14 5 1 25 32 
0 23 22 26 21 6 4 27 13 3 2 12 15 14 5 1 25 32 
0 23 21 6 4 26 13 27 3 2 12 15 14 5 1 7 31 32 
0 23 21 6 4 27 13 3 2 12 15 14 5 1 7 28 25 31 32 
0 23 26 21 6 4 27 13 3 2 12 15 14 5 1 25 31 32 
0 22 26 23 21 6 4 27 13 3 2 19 12 14 5 1 28 25 32 
0 23 26 21 6 4 27 13 3 2 19 12 14 5 1 7 31 32 
0 23 21 6 4 27 13 3 2 19 12 14 5 1 7 30 28 25 31 32 
0 23 21 6 4 26 22 13 27 3 2 19 12 14 5 1 7 28 25 32 
0 23 22 26 21 6 4 27 13 3 2 19 12 14 5 1 7 31 32 
0 23 21 6 4 26 13 27 3 19 16 12 2 5 1 7 31 32 
0 23 21 6 4 27 13 3 19 16 15 12 2 5 1 7 28 25 32 
0 23 21 6 4 27 13 3 2 19 16 15 12 5 1 7 30 28 25 32 
0 23 21 6 4 27 13 3 19 16 15 14 12 5 1 7 28 25 31 32 
0 23 21 6 4 13 3 19 16 15 14 12 2 5 1 7 31 32 
0 23 26 22 31 25 29 28 11 30 7 1 5 12 2 3 13 27 4 32 
0 23 26 22 31 25 28 11 30 7 1 5 2 12 19 3 13 27 32 
0 23 26 22 31 25 28 11 30 7 1 5 12 19 2 3 13 27 4 32 
0 23 21 6 4 27 3 13 26 22 2 19 12 5 1 7 30 28 29 25 31 32 
0 23 21 6 4 26 13 27 3 2 19 12 5 1 7 30 28 29 25 31 32 
0 23 21 6 4 27 13 3 2 19 12 5 1 7 30 11 28 29 25 26 32 
0 22 26 23 21 6 4 27 13 3 2 19 12 5 1 7 30 28 25 31 32 
0 23 21 6 4 26 22 13 27 3 2 19 12 5 1 7 30 28 29 25 32 
0 23 21 6 4 27 13 3 2 12 15 14 5 1 7 28 25 31 32 
0 23 22 26 21 6 4 27 13 3 2 12 15 14 5 1 25 32 
0 23 26 21 6 4 27 13 3 2 12 15 14 5 1 25 31 32 
0 22 26 23 21 6 4 27 13 3 2 12 15 14 5 1 25 32 
0 23 21 6 4 26 13 27 3 2 12 15 14 5 1 7 31 32 
0 23 21 6 4 27 13 3 2 19 12 14 5 1 7 30 28 25 31 32 
0 23 22 26 21 6 4 27 13 3 2 19 12 14 5 1 7 31 32 
0 23 21 6 4 26 22 13 27 3 2 19 12 14 5 1 7 28 25 32 
0 22 26 23 21 6 4 27 13 3 2 19 12 14 5 1 28 25 32 
0 22 23 21 6 4 27 13 3 19 16 12 2 5 1 25 32 
0 23 21 6 4 27 13 3 2 19 16 12 5 1 7 30 28 25 32 
0 23 21 6 4 27 13 3 19 16 12 2 5 1 7 28 25 32 
0 23 21 6 4 27 13 3 2 19 16 15 12 5 1 7 30 28 25 32 
0 23 21 6 4 27 13 3 19 16 15 12 2 5 1 7 28 25 32 
0 23 21 6 4 13 27 19 16 15 14 12 2 5 1 7 31 32 
0 23 21 6 4 13 3 19 16 15 14 12 2 5 1 7 31 32 
0 23 21 6 4 13 3 2 12 19 16 15 14 5 1 28 25 32 
0 23 26 22 31 25 29 28 11 30 7 1 5 12 2 3 13 27 4 32 
0 23 26 22 31 25 28 11 30 7 1 5 2 12 19 3 13 27 32 
0 23 26 22 31 25 28 11 30 7 1 5 12 19 2 3 13 27 4 32 
0 23 21 6 4 26 13 27 3 2 19 12 5 1 7 30 28 29 25 31 32 
0 22 26 23 21 6 4 27 13 3 2 19 12 5 1 7 30 28 25 31 32 
0 23 21 6 4 27 3 13 26 22 2 19 12 5 1 7 30 28 29 25 31 32 
0 23 21 6 4 27 13 3 2 19 12 5 1 7 30 11 28 29 25 26 32 
0 23 21 6 4 26 22 13 27 3 19 12 2 5 1 7 30 28 25 32 
0 23 21 6 4 26 22 13 27 3 2 19 12 5 1 7 30 28 29 25 32 
0 23 26 21 6 4 27 13 3 2 19 12 5 1 7 30 28 29 25 32 
0 22 26 23 21 6 4 27 13 3 2 12 15 14 5 1 25 32 
0 23 26 21 6 4 27 13 3 2 12 15 14 5 1 25 31 32 
0 23 21 6 4 26 13 27 3 2 12 15 14 5 1 7 31 32 
0 23 21 6 4 27 13 3 2 12 15 14 5 1 7 28 25 31 32 
0 23 22 26 21 6 4 27 13 3 2 12 15 14 5 1 25 32 
0 23 21 6 4 27 13 3 2 19 12 14 5 1 7 30 28 25 31 32 
0 22 26 23 21 6 4 27 13 3 2 19 12 14 5 1 28 25 32 
0 23 21 6 4 26 22 13 27 3 2 19 12 14 5 1 7 28 25 32 
0 23 26 21 6 4 27 13 3 2 19 12 14 5 1 7 31 32 
0 23 22 26 21 6 4 27 13 3 2 19 12 14 5 1 7 31 32 
0 23 21 6 4 26 13 27 3 2 19 12 14 5 1 7 28 25 31 32 
0 23 21 6 4 26 13 27 3 19 16 12 2 5 1 7 31 32 
0 23 21 6 4 27 13 3 19 16 15 12 2 5 1 7 28 25 32 
0 23 21 6 4 27 13 3 2 19 16 15 12 5 1 7 30 28 25 32 
0 23 21 6 4 13 3 19 16 15 14 12 5 1 7 30 28 25 32 
0 23 21 6 4 13 3 19 16 15 14 12 2 5 1 7 31 32 
0 23 26 22 31 25 29 28 11 30 7 1 5 12 2 3 13 27 4 32 
0 23 26 22 31 25 28 11 30 7 1 5 2 12 19 3 13 27 32 
0 23 21 6 4 26 13 27 3 2 19 12 5 1 7 30 28 29 25 31 32 
0 22 26 23 21 6 4 27 13 3 2 19 12 5 1 7 30 28 25 31 32 
0 23 21 6 4 27 3 13 26 22 2 19 12 5 1 7 30 28 29 25 31 32 
0 23 21 6 4 26 22 13 27 3 2 19 12 5 1 7 30 28 29 25 32 
0 23 26 21 6 4 27 13 3 2 19 12 5 1 7 30 28 29 25 32 
0 23 21 6 4 26 22 13 27 3 19 12 2 5 1 7 30 28 25 32 
0 23 22 26 21 6 4 27 13 3 2 19 12 5 1 7 30 28 29 25 32 
0 23 21 6 4 26 22 3 13 27 19 12 2 5 1 7 30 28 25 31 32 
0 23 21 6 4 26 13 27 3 2 12 15 14 5 1 7 31 32 
0 22 26 23 21 6 4 27 13 3 2 12 15 14 5 1 25 32 
0 23 26 21 6 4 27 13 3 2 12 15 14 5 1 25 31 32 
0 23 21 6 4 27 13 3 2 12 15 14 5 1 7 28 25 31 32 
0 22 26 23 21 6 4 27 13 3 2 19 12 14 5 1 28 25 32 
0 23 21 6 4 27 13 3 2 19 12 14 5 1 7 30 28 25 31 32 
0 23 21 6 4 26 22 13 27 3 2 19 12 14 5 1 7 28 25 32 
0 23 22 26 21 6 4 27 13 3 2 19 12 14 5 1 7 31 32 
0 22 23 21 6 4 27 13 3 19 16 12 2 5 1 25 32 
0 23 21 6 4 27 13 3 2 19 16 12 5 1 7 30 28 25 32 
0 23 21 6 4 27 13 3 19 16 12 2 5 1 7 28 25 32 
0 23 21 6 4 27 13 3 2 19 16 15 12 5 1 7 30 28 25 32 
0 23 21 6 4 27 13 3 19 16 15 14 12 5 1 7 28 25 31 32 
0 23 21 6 4 13 3 19 16 15 14 12 2 5 1 7 31 32 
0 23 26 22 31 25 29 28 11 30 7 1 5 12 2 3 13 27 4 32 
0 23 26 22 31 25 28 11 30 7 1 5 2 12 19 3 13 27 32 
0 23 26 22 31 25 28 11 30 7 1 5 12 19 2 3 13 27 4 32 
0 22 26 23 21 6 4 27 13 3 2 19 12 5 1 7 30 28 25 31 32 
0 23 26 21 6 4 27 13 3 2 19 12 5 1 7 30 28 29 25 32 
0 23 22 26 21 6 4 27 13 3 2 19 12 5 1 7 30 28 29 25 32 
0 23 21 6 4 26 22 13 27 3 2 19 12 5 1 7 30 28 29 25 32 
0 23 21 6 4 26 13 27 3 2 19 12 5 1 7 30 28 29 25 31 32 
0 23 21 6 4 27 3 13 26 22 2 19 12 5 1 7 30 28 29 25 31 32 
0 23 21 6 4 26 22 13 27 3 19 12 2 5 1 7 30 28 25 32 
0 23 21 6 4 26 22 3 13 27 19 12 2 5 1 7 30 28 25 31 32 
0 23 21 6 4 26 13 27 3 2 12 15 14 5 1 7 31 32 
0 23 22 26 21 6 4 27 13 3 2 12 15 14 5 1 25 32 
0 22 26 23 21 6 4 27 13 3 2 12 15 14 5 1 25 32 
0 23 21 6 4 27 13 3 2 12 15 14 5 1 7 28 25 31 32 
0 23 26 21 6 4 27 13 3 2 12 15 14 5 1 25 31 32 
0 23 21 6 4 26 22 13 27 3 2 19 12 14 5 1 7 28 25 32 
0 23 21 6 4 27 13 3 2 19 12 14 5 1 7 30 28 25 31 32 
0 22 26 23 21 6 4 27 13 3 2 19 12 14 5 1 28 25 32 
0 23 22 26 21 6 4 27 13 3 2 19 12 14 5 1 7 31 32 
0 23 26 21 6 4 27 13 3 2 19 12 14 5 1 7 31 32 
0 23 21 6 4 27 13 3 19 16 12 2 5 1 7 28 25 32 
0 23 21 6 4 27 13 3 2 19 16 15 12 5 1 7 30 28 25 32 
0 23 21 6 4 13 3 19 16 15 14 12 5 1 7 30 28 25 32 
0 23 21 6 4 13 3 19 16 15 14 12 2 5 1 7 31 32 
0 23 26 22 31 25 29 28 11 30 7 1 5 12 2 3 13 27 4 32 
0 23 26 22 31 25 28 11 30 7 1 5 2 12 19 3 13 27 32 
0 23 26 22 31 25 28 11 30 7 1 5 12 19 2 3 13 27 4 32 
0 23 21 6 4 27 3 13 26 22 2 19 12 5 1 7 30 28 29 25 31 32 
0 23 21 6 4 26 22 13 27 3 19 12 2 5 1 7 30 28 25 32 
0 23 21 6 4 26 22 3 13 27 19 12 2 5 1 7 30 28 25 31 32 
0 23 21 6 4 26 13 27 3 2 19 12 5 1 7 30 28 29 25 31 32 
0 22 26 23 21 6 4 27 13 3 2 19 12 5 1 7 30 28 25 31 32 
0 23 21 6 4 26 22 13 27 3 2 19 12 5 1 7 30 28 29 25 32 
0 23 26 21 6 4 27 13 3 2 19 12 5 1 7 30 28 29 25 32 
0 23 21 6 4 27 13 3 2 19 12 5 1 7 30 11 28 29 25 26 32 
0 23 21 6 4 27 13 3 19 12 2 5 1 7 30 28 29 25 31 32 
0 23 22 26 21 6 4 27 13 3 2 12 15 14 5 1 25 32 
0 22 26 23 21 6 4 27 13 3 2 12 15 14 5 1 25 32 
0 23 26 21 6 4 27 13 3 2 12 15 14 5 1 25 31 32 
0 23 21 6 4 26 22 13 27 3 2 19 12 14 5 1 7 28 25 32 
0 23 22 26 21 6 4 27 13 3 2 19 12 14 5 1 7 31 32 
0 22 26 23 21 6 4 27 13 3 2 19 12 14 5 1 28 25 32 
0 23 21 6 4 27 13 3 2 19 12 14 5 1 7 30 28 25 31 32 
0 23 21 6 4 26 13 27 3 2 19 12 14 5 1 7 28 25 31 32 
0 23 26 21 6 4 27 13 3 2 19 12 14 5 1 7 31 32 
0 22 23 21 6 4 27 13 3 19 16 12 2 5 1 25 32 
0 23 21 6 4 27 13 3 19 16 12 2 5 1 7 28 25 32 
0 22 26 23 21 6 4 27 13 3 19 16 15 12 5 1 7 31 32 
0 23 21 6 4 27 13 3 19 16 15 12 2 5 1 7 28 25 32 
0 23 21 6 4 27 13 3 2 19 16 15 12 5 1 7 30 28 25 32 
0 23 21 6 4 27 13 3 19 16 15 14 12 5 1 7 28 25 31 32 
0 23 21 6 4 13 3 19 16 15 14 12 2 5 1 7 31 32 
0 23 26 22 31 25 29 28 11 30 7 1 5 12 2 3 13 27 4 32 
0 23 26 22 31 25 28 11 30 7 1 5 12 19 2 3 13 27 4 32 
0 23 26 22 31 25 28 11 30 7 1 5 2 12 19 3 13 27 32 
0 23 22 26 21 6 4 27 13 3 2 19 12 5 1 7 30 28 29 25 32 
0 23 21 6 4 26 22 13 27 3 2 19 12 5 1 7 30 28 29 25 32 
0 22 23 21 6 4 26 13 27 3 2 19 12 5 1 7 30 28 25 32 
0 22 26 23 21 6 4 27 13 3 2 19 12 5 1 7 30 28 25 31 32 
0 23 26 21 6 4 27 13 3 2 19 12 5 1 7 30 28 29 25 32 
0 23 21 6 4 26 13 27 3 2 19 12 5 1 7 30 28 29 25 31 32 
0 23 21 6 4 27 13 3 2 19 12 5 1 7 30 11 28 29 25 26 32 
0 23 21 6 4 27 3 13 26 22 2 19 12 5 1 7 30 28 29 25 31 32 
0 23 21 6 4 26 22 3 13 27 19 12 2 5 1 7 30 28 25 31 32 
0 23 21 6 4 26 22 13 27 3 19 12 2 5 1 7 30 28 25 32 
0 22 23 21 6 4 26 13 27 3 19 12 2 5 1 7 28 25 32 
0 23 22 26 21 6 4 27 13 3 19 12 2 5 1 7 28 29 25 32 
0 23 22 26 21 6 4 27 13 3 2 12 15 14 5 1 25 32 
0 23 21 6 4 27 13 3 2 12 15 14 5 1 7 28 25 31 32 
0 22 26 23 21 6 4 27 13 3 2 12 15 14 5 1 25 32 
0 23 21 6 4 26 13 27 3 2 12 15 14 5 1 7 31 32 
0 23 26 21 6 4 27 13 3 2 12 15 14 5 1 25 31 32 
0 23 21 6 4 27 13 3 2 19 12 14 5 1 7 30 28 25 31 32 
0 23 21 6 4 26 22 13 27 3 2 19 12 14 5 1 7 28 25 32 
0 23 22 26 21 6 4 13 27 19 16 12 2 5 1 25 31 32 
0 22 26 23 21 6 4 27 13 3 2 19 12 14 5 1 28 25 32 
0 23 22 26 21 6 4 27 13 3 2 19 12 14 5 1 7 31 32 
0 23 21 6 4 26 13 27 3 2 19 12 14 5 1 7 28 25 31 32 
0 23 26 21 6 4 27 13 3 2 19 12 14 5 1 7 31 32 
0 22 23 21 6 4 27 13 3 19 16 12 2 5 1 25 32 
0 23 21 6 4 27 13 3 2 19 16 12 5 1 7 30 28 25 32 
0 22 23 21 6 4 27 13 3 2 19 16 12 5 1 28 25 32 
0 23 21 6 4 27 13 3 2 19 16 15 12 5 1 7 30 28 25 32 
0 23 21 6 4 27 13 3 19 16 15 12 2 5 1 7 28 25 32 
0 23 26 22 31 25 29 28 11 30 7 1 5 12 2 3 13 27 4 32 
0 23 26 22 31 25 28 11 30 7 1 5 2 12 19 3 13 27 32 
0 23 26 22 31 25 28 11 30 7 1 5 12 19 2 3 13 27 4 32 
0 23 21 6 4 26 22 3 13 27 19 12 2 5 1 7 30 28 25 31 32 
0 22 26 23 21 6 4 27 13 3 2 19 12 5 1 7 30 28 25 31 32 
0 23 21 6 4 26 22 13 27 3 2 19 12 5 1 7 30 28 29 25 32 
0 23 21 6 4 26 13 27 3 2 19 12 5 1 7 30 28 29 25 31 32 
0 23 21 6 4 27 3 13 26 22 2 19 12 5 1 7 30 28 29 25 31 32 
0 22 23 21 6 4 26 13 27 3 19 12 2 5 1 7 28 25 32 
0 22 23 21 6 4 26 13 27 3 2 19 12 5 1 7 30 28 25 32 
0 23 26 21 6 4 27 13 3 2 19 12 5 1 7 30 28 29 25 32 
0 23 21 6 4 27 13 3 2 19 12 5 1 7 30 11 28 29 25 26 32 
0 23 22 26 21 6 4 27 13 3 2 19 12 5 1 7 30 28 29 25 32 
0 23 22 26 21 6 4 27 13 3 19 12 2 5 1 7 28 29 25 32 
0 23 21 6 4 26 22 13 27 3 19 12 2 5 1 7 30 28 25 32 
0 22 26 23 21 6 4 27 13 3 2 12 15 14 5 1 25 32 
0 23 21 6 4 27 13 3 2 12 15 14 5 1 7 28 25 31 32 
0 23 21 6 4 26 13 27 3 2 12 15 14 5 1 7 31 32 
0 23 26 21 6 4 27 13 3 2 12 15 14 5 1 25 31 32 
0 23 22 26 21 6 4 27 13 3 2 12 15 14 5 1 25 32 
0 23 21 6 4 26 22 13 27 3 2 19 12 14 5 1 7 28 25 32 
0 23 22 26 21 6 4 27 13 3 2 19 12 14 5 1 7 31 32 
0 22 26 23 21 6 4 27 13 3 2 19 12 14 5 1 28 25 32 
0 23 21 6 4 27 13 3 2 19 12 14 5 1 7 30 28 25 31 32 
0 23 21 6 4 26 13 27 3 2 19 12 14 5 1 7 28 25 31 32 
0 23 26 21 6 4 27 13 3 2 19 12 14 5 1 7 31 32 
0 23 22 26 21 6 4 13 27 19 16 12 2 5 1 25 31 32 
0 23 21 6 4 27 13 3 2 19 16 12 5 1 7 30 28 25 32 
0 22 23 21 6 4 27 13 3 2 19 16 12 5 1 28 25 32 
0 22 23 21 6 4 27 13 3 19 16 12 2 5 1 25 32 
0 23 21 6 4 27 13 3 2 19 16 15 12 5 1 7 30 28 25 32 
0 23 21 6 4 27 13 3 19 16 15 12 2 5 1 7 28 25 32 
0 23 21 6 4 13 3 2 12 19 16 15 14 5 1 28 25 32 
0 23 26 22 31 25 29 28 11 30 7 1 5 12 2 3 13 27 4 32 
0 23 26 22 31 25 28 11 30 7 1 5 12 19 2 3 13 27 4 32 
0 23 26 22 31 25 28 11 30 7 1 5 2 12 19 3 13 27 32 
0 23 22 26 21 6 4 27 13 3 2 19 12 5 1 7 30 28 29 25 32 
0 23 21 6 4 26 22 13 27 3 2 19 12 5 1 7 30 28 29 25 32 
0 22 26 23 21 6 4 27 13 3 2 19 12 5 1 7 30 28 25 31 32 
0 22 23 21 6 4 26 13 27 3 2 19 12 5 1 7 30 28 25 32 
0 23 26 21 6 4 27 13 3 2 19 12 5 1 7 30 28 29 25 32 
0 23 21 6 4 26 13 27 3 2 19 12 5 1 7 30 28 29 25 31 32 
0 22 23 21 6 4 26 13 27 3 19 12 2 5 1 7 28 25 32 
0 23 21 6 4 26 22 13 27 3 19 12 2 5 1 7 30 28 25 32 
0 23 21 6 4 26 22 3 13 27 19 12 2 5 1 7 30 28 25 31 32 
0 23 22 26 21 6 4 27 13 3 19 12 2 5 1 7 28 29 25 32 
0 22 26 23 21 6 4 27 13 3 2 12 15 14 5 1 25 32 
0 23 22 26 21 6 4 27 13 3 2 12 15 14 5 1 25 32 
0 23 21 6 4 26 13 27 3 2 12 15 14 5 1 7 31 32 
0 23 21 6 4 27 13 3 2 12 15 14 5 1 7 28 25 31 32 
0 23 26 21 6 4 27 13 3 2 12 15 14 5 1 25 31 32 
0 22 26 23 21 6 4 27 13 3 2 19 12 14 5 1 28 25 32 
0 23 21 6 4 26 22 13 27 3 2 19 12 14 5 1 7 28 25 32 
0 23 22 26 21 6 4 27 13 3 2 19 12 14 5 1 7 31 32 
0 23 26 21 6 4 27 13 3 2 19 12 14 5 1 7 31 32 
0 23 21 6 4 27 13 3 2 19 12 14 5 1 7 30 28 25 31 32 
0 23 21 6 4 26 13 27 3 2 19 12 14 5 1 7 28 25 31 32 
0 23 22 26 21 6 4 13 27 19 16 12 2 5 1 25 31 32 
0 22 23 21 6 4 27 13 3 2 19 16 12 5 1 28 25 32 
0 22 23 21 6 4 27 13 3 19 16 12 2 5 1 25 32 
0 23 21 6 4 27 13 3 2 19 16 15 12 5 1 7 30 28 25 32 
0 23 21 6 4 27 13 3 2 12 19 16 15 14 5 1 25 32 
0 23 26 22 31 25 29 28 11 30 7 1 5 12 2 3 13 27 4 32 
0 23 26 22 31 25 28 11 30 7 1 5 2 12 19 3 13 27 32 
0 23 26 22 31 25 28 11 30 7 1 5 12 19 2 3 13 27 4 32 
0 23 22 26 21 6 4 27 13 3 2 19 12 5 1 7 30 28 29 25 32 
0 23 21 6 4 26 22 13 27 3 2 19 12 5 1 7 30 28 29 25 32 
0 22 23 21 6 4 26 13 27 3 2 19 12 5 1 7 30 28 25 32 
0 22 23 21 6 4 26 13 27 3 19 12 2 5 1 7 28 25 32 
0 23 21 6 4 26 13 27 3 2 19 12 5 1 7 30 28 29 25 31 32 
0 23 26 21 6 4 27 13 3 2 19 12 5 1 7 30 28 29 25 32 
0 22 26 23 21 6 4 27 13 3 2 19 12 5 1 7 30 28 25 31 32 
0 23 21 6 4 27 3 13 26 22 2 19 12 5 1 7 30 28 29 25 31 32 
0 23 21 6 4 26 22 3 13 27 19 12 2 5 1 7 30 28 25 31 32 
0 23 21 6 4 26 22 13 27 3 19 12 2 5 1 7 30 28 25 32 
0 23 21 6 4 27 13 3 2 19 12 5 1 7 30 11 28 29 25 26 32 
0 23 21 6 4 26 13 27 3 2 12 15 14 5 1 7 31 32 
0 22 26 23 21 6 4 27 13 3 2 12 15 14 5 1 25 32 
0 23 26 21 6 4 27 13 3 2 12 15 14 5 1 25 31 32 
0 23 21 6 4 27 13 3 2 12 15 14 5 1 7 28 25 31 32 
0 23 22 26 21 6 4 27 13 3 2 12 15 14 5 1 25 32 
0 23 21 6 4 26 22 13 27 3 2 19 12 14 5 1 7 28 25 32 
0 22 26 23 21 6 4 27 13 3 2 19 12 14 5 1 28 25 32 
0 23 26 21 6 4 27 13 3 2 19 12 14 5 1 7 31 32 
0 23 21 6 4 26 13 27 3 2 19 12 14 5 1 7 28 25 31 32 
0 23 22 26 21 6 4 27 13 3 2 19 12 14 5 1 7 31 32 
0 23 21 6 4 27 13 3 2 19 12 14 5 1 7 30 28 25 31 32 
0 23 22 26 21 6 4 13 27 19 16 12 2 5 1 25 31 32 
0 22 23 21 6 4 27 13 3 2 19 16 12 5 1 28 25 32 
0 22 23 21 6 4 27 13 3 19 16 12 2 5 1 25 32 
0 23 21 6 4 27 13 3 2 19 16 12 5 1 7 30 28 25 32 
0 23 21 6 4 27 13 3 2 19 16 15 12 5 1 7 30 28 25 32 
0 23 21 6 4 27 13 3 19 16 15 14 12 5 1 7 28 25 31 32 
0 23 21 6 4 27 13 3 2 19 16 15 14 12 5 1 7 28 25 32 
0 23 21 6 4 27 13 3 19 16 15 14 12 2 5 1 28 25 32 
0 23 26 22 31 25 29 28 11 30 7 1 5 12 2 3 13 27 4 32 
0 23 26 22 31 25 28 11 30 7 1 5 2 12 19 3 13 27 32 
0 23 26 22 31 25 28 11 30 7 1 5 12 19 2 3 13 27 4 32 
0 23 21 6 4 26 22 13 27 3 2 19 12 5 1 7 30 28 29 25 32 
0 22 26 23 21 6 4 27 13 3 2 19 12 5 1 7 30 28 25 31 32 
0 23 22 26 21 6 4 27 13 3 2 19 12 5 1 7 30 28 29 25 32 
0 23 26 21 6 4 27 13 3 2 19 12 5 1 7 30 28 29 25 32 
0 23 21 6 4 26 13 27 3 2 19 12 5 1 7 30 28 29 25 31 32 
0 22 23 21 6 4 26 13 27 3 2 19 12 5 1 7 30 28 25 32 
0 22 23 21 6 4 26 13 27 3 19 12 2 5 1 7 28 25 32 
0 23 21 6 4 26 22 13 27 3 19 12 2 5 1 7 30 28 25 32 
0 23 21 6 4 26 22 3 13 27 19 12 2 5 1 7 30 28 25 31 32 
0 23 21 6 4 27 3 13 26 22 2 19 12 5 1 7 30 28 29 25 31 32 
0 23 21 6 4 27 13 3 2 19 12 5 1 7 30 11 28 29 25 26 32 
0 23 21 6 4 27 13 3 19 12 2 5 1 7 30 28 29 25 31 32 
0 23 21 6 4 26 13 27 3 2 12 15 14 5 1 7 31 32 
0 23 26 21 6 4 27 13 3 2 12 15 14 5 1 25 31 32 
0 22 26 23 21 6 4 27 13 3 2 12 15 14 5 1 25 32 
0 23 22 26 21 6 4 27 13 3 2 12 15 14 5 1 25 32 
0 23 21 6 4 27 13 3 2 12 15 14 5 1 7 28 25 31 32 
0 23 21 6 4 26 13 27 3 2 19 12 14 5 1 7 28 25 31 32 
0 23 21 6 4 27 13 3 2 19 12 14 5 1 7 30 28 25 31 32 
0 23 26 21 6 4 27 13 3 2 19 12 14 5 1 7 31 32 
0 22 26 23 21 6 4 27 13 3 2 19 12 14 5 1 28 25 32 
0 23 22 26 21 6 4 27 13 3 2 19 12 14 5 1 7 31 32 
0 23 21 6 4 26 22 13 27 3 2 19 12 14 5 1 7 28 25 32 
0 23 21 6 4 13 27 19 16 12 2 5 1 7 28 29 25 32 
0 22 23 21 6 4 27 13 3 19 16 12 2 5 1 25 32 
0 23 21 6 4 27 13 3 2 19 16 12 5 1 7 30 28 25 32 
0 22 23 21 6 4 27 13 3 2 19 16 12 5 1 28 25 32 
0 23 21 6 4 27 13 3 2 19 16 15 12 5 1 7 30 28 25 32 
0 23 21 6 4 27 13 3 19 16 15 12 2 5 1 7 28 25 32 
0 23 21 6 4 27 13 3 19 16 15 14 12 5 1 7 28 25 31 32 
0 23 21 6 4 27 13 3 2 19 16 15 14 12 5 1 7 28 25 32 
0 23 26 22 31 25 29 28 11 30 7 1 5 12 2 3 13 27 4 32 
0 23 26 22 31 25 28 11 30 7 1 5 2 12 19 3 13 27 32 
0 23 26 22 31 25 28 11 30 7 1 5 12 19 2 3 13 27 4 32 
0 22 26 23 21 6 4 27 13 3 2 19 12 5 1 7 30 28 25 31 32 
0 23 21 6 4 26 13 27 3 2 19 12 5 1 7 30 28 29 25 31 32 
0 23 26 21 6 4 27 13 3 2 19 12 5 1 7 30 28 29 25 32 
0 23 22 26 21 6 4 27 13 3 2 19 12 5 1 7 30 28 29 25 32 
0 23 21 6 4 26 22 13 27 3 2 19 12 5 1 7 30 28 29 25 32 
0 22 23 21 6 4 26 13 27 3 2 19 12 5 1 7 30 28 25 32 
0 23 21 6 4 26 22 13 27 3 19 12 2 5 1 7 30 28 25 32 
0 22 23 21 6 4 26 13 27 3 19 12 2 5 1 7 28 25 32 
0 23 21 6 4 27 3 13 26 22 2 19 12 5 1 7 30 28 29 25 31 32 
0 23 21 6 4 26 22 3 13 27 19 12 2 5 1 7 30 28 25 31 32 
0 23 21 6 4 27 13 3 2 19 12 5 1 7 30 11 28 29 25 26 32 
0 22 26 23 21 6 4 27 13 3 2 12 15 14 5 1 25 32 
0 23 22 26 21 6 4 27 13 3 2 12 15 14 5 1 25 32 
0 23 21 6 4 26 13 27 3 2 12 15 14 5 1 7 31 32 
0 23 26 21 6 4 27 13 3 2 12 15 14 5 1 25 31 32 
0 23 21 6 4 27 13 3 2 12 15 14 5 1 7 28 25 31 32 
0 23 21 6 4 26 22 13 27 3 2 19 12 14 5 1 7 28 25 32 
0 23 26 21 6 4 27 13 3 2 19 12 14 5 1 7 31 32 
0 23 22 26 21 6 4 27 13 3 2 19 12 14 5 1 7 31 32 
0 22 26 23 21 6 4 27 13 3 2 19 12 14 5 1 28 25 32 
0 23 21 6 4 27 13 3 2 19 12 14 5 1 7 30 28 25 31 32 
0 23 22 26 21 6 4 13 27 19 16 12 2 5 1 25 31 32 
0 23 21 6 4 26 13 27 3 2 19 12 14 5 1 7 28 25 31 32 
0 23 21 6 4 27 13 3 2 19 16 12 5 1 7 30 28 25 32 
0 22 23 21 6 4 27 13 3 2 19 16 12 5 1 28 25 32 
0 22 23 21 6 4 27 13 3 19 16 12 2 5 1 25 32 
0 23 21 6 4 27 13 3 2 19 16 15 12 5 1 7 30 28 25 32 
0 23 21 6 4 27 13 3 19 16 15 12 2 5 1 7 28 25 32 
0 23 26 22 31 25 29 28 11 30 7 1 5 12 2 3 13 27 4 32 
0 23 26 22 31 25 28 11 30 7 1 5 2 12 19 3 13 27 32 
0 23 26 22 31 25 28 11 30 7 1 5 12 19 2 3 13 27 4 32 
0 23 22 26 21 6 4 27 13 3 2 19 12 5 1 7 30 28 29 25 32 
0 22 26 23 21 6 4 27 13 3 2 19 12 5 1 7 30 28 25 31 32 
0 23 21 6 4 26 22 13 27 3 2 19 12 5 1 7 30 28 29 25 32 
0 23 21 6 4 26 13 27 3 2 19 12 5 1 7 30 28 29 25 31 32 
0 23 26 21 6 4 27 13 3 2 19 12 5 1 7 30 28 29 25 32 
0 22 23 21 6 4 26 13 27 3 2 19 12 5 1 7 30 28 25 32 
0 22 23 21 6 4 26 13 27 3 19 12 2 5 1 7 28 25 32 
0 23 21 6 4 27 3 13 26 22 2 19 12 5 1 7 30 28 29 25 31 32 
0 23 21 6 4 26 22 3 13 27 19 12 2 5 1 7 30 28 25 31 32 
0 23 21 6 4 26 22 13 27 3 19 12 2 5 1 7 30 28 25 32 
0 23 21 6 4 27 13 3 2 19 12 5 1 7 30 11 28 29 25 26 32 
0 23 22 26 21 6 4 27 13 3 2 12 15 14 5 1 25 32 
0 22 26 23 21 6 4 27 13 3 2 12 15 14 5 1 25 32 
0 23 21 6 4 27 13 3 2 12 15 14 5 1 7 28 25 31 32 
0 23 21 6 4 26 13 27 3 2 12 15 14 5 1 7 31 32 
0 23 26 21 6 4 27 13 3 2 12 15 14 5 1 25 31 32 
0 22 26 23 21 6 4 27 13 3 2 19 12 14 5 1 28 25 32 
0 23 22 26 21 6 4 27 13 3 2 19 12 14 5 1 7 31 32 
0 23 21 6 4 26 22 13 27 3 2 19 12 14 5 1 7 28 25 32 
0 23 21 6 4 27 13 3 2 19 12 14 5 1 7 30 28 25 31 32 
0 23 21 6 4 26 13 27 3 2 19 12 14 5 1 7 28 25 31 32 
0 23 26 21 6 4 27 13 3 2 19 12 14 5 1 7 31 32 
0 23 22 26 21 6 4 13 27 19 16 12 2 5 1 25 31 32 
0 23 21 6 4 27 13 3 2 19 16 12 5 1 7 30 28 25 32 
0 22 23 21 6 4 27 13 3 2 19 16 12 5 1 28 25 32 
0 22 23 21 6 4 27 13 3 19 16 12 2 5 1 25 32 
0 23 21 6 4 27 13 3 2 19 16 15 12 5 1 7 30 28 25 32 
0 23 21 6 4 27 13 3 19 16 15 12 2 5 1 7 28 25 32 
0 23 21 6 4 27 13 3 19 16 15 14 12 5 1 7 28 25 31 32 
0 23 21 6 4 27 13 3 2 19 16 15 14 12 5 1 7 28 25 32 
0 23 26 22 31 25 29 28 11 30 7 1 5 12 2 3 13 27 4 32 
0 23 26 22 31 25 28 11 30 7 1 5 2 12 19 3 13 27 32 
0 23 26 22 31 25 28 11 30 7 1 5 12 19 2 3 13 27 4 32 
0 22 23 21 6 4 26 13 27 3 19 12 2 5 1 7 28 25 32 
0 22 23 21 6 4 26 13 27 3 2 19 12 5 1 7 30 28 25 32 
0 22 26 23 21 6 4 27 13 3 2 19 12 5 1 7 30 28 25 31 32 
0 23 22 26 21 6 4 27 13 3 2 19 12 5 1 7 30 28 29 25 32 
0 23 21 6 4 26 22 13 27 3 2 19 12 5 1 7 30 28 29 25 32 
0 23 21 6 4 26 13 27 3 2 19 12 5 1 7 30 28 29 25 31 32 
0 23 26 21 6 4 27 13 3 2 19 12 5 1 7 30 28 29 25 32 
0 23 21 6 4 27 3 13 26 22 2 19 12 5 1 7 30 28 29 25 31 32 
0 23 21 6 4 26 22 3 13 27 19 12 2 5 1 7 30 28 25 31 32 
0 23 21 6 4 26 22 13 27 3 19 12 2 5 1 7 30 28 25 32 
0 31 25 29 28 11 30 7 1 5 12 19 2 3 13 26 22 23 32 
0 31 25 29 28 11 30 7 1 5 2 12 19 3 13 26 22 23 32 
0 23 21 6 4 27 13 3 2 19 12 5 1 7 30 11 28 29 25 26 32 
0 23 22 26 21 6 4 27 13 3 2 12 15 14 5 1 25 32 
0 23 21 6 4 26 13 27 3 2 12 15 14 5 1 7 31 32 
0 23 21 6 4 27 13 3 2 12 15 14 5 1 7 28 25 31 32 
0 23 26 21 6 4 27 13 3 2 12 15 14 5 1 25 31 32 
0 22 26 23 21 6 4 27 13 3 2 12 15 14 5 1 25 32 
0 23 22 26 21 6 4 27 13 3 2 19 12 14 5 1 7 31 32 
0 22 26 23 21 6 4 27 13 3 2 19 12 14 5 1 28 25 32 
0 23 26 21 6 4 27 13 3 2 19 12 14 5 1 7 31 32 
0 23 21 6 4 26 13 27 3 2 19 12 14 5 1 7 28 25 31 32 
0 23 21 6 4 26 22 13 27 3 2 19 12 14 5 1 7 28 25 32 
0 23 21 6 4 27 13 3 2 19 12 14 5 1 7 30 28 25 31 32 
0 23 22 26 21 6 4 13 27 19 16 12 2 5 1 25 31 32 
0 22 23 21 6 4 27 13 3 2 19 16 12 5 1 28 25 32 
0 23 21 6 4 27 13 3 2 19 16 12 5 1 7 30 28 25 32 
0 22 23 21 6 4 27 13 3 19 16 12 2 5 1 25 32 
0 23 21 6 4 27 13 3 2 19 16 15 12 5 1 7 30 28 25 32 
0 23 21 6 4 27 13 3 19 16 15 12 2 5 1 7 28 25 32 
0 23 26 22 31 25 29 28 11 30 7 1 5 12 2 3 13 27 4 32 
0 23 26 22 31 25 28 11 30 7 1 5 2 12 19 3 13 27 32 
0 23 26 22 31 25 28 11 30 7 1 5 12 19 2 3 13 27 4 32 
0 22 26 23 21 6 4 27 13 3 2 19 12 5 1 7 30 28 25 31 32 
0 23 21 6 4 26 13 27 3 2 19 12 5 1 7 30 28 29 25 31 32 
0 23 26 21 6 4 27 13 3 2 19 12 5 1 7 30 28 29 25 32 
0 23 21 6 4 26 22 13 27 3 2 19 12 5 1 7 30 28 29 25 32 
0 22 23 21 6 4 26 13 27 3 2 19 12 5 1 7 30 28 25 32 
0 23 22 26 21 6 4 27 13 3 2 19 12 5 1 7 30 28 29 25 32 
0 23 21 6 4 27 13 3 2 19 12 5 1 7 30 11 28 29 25 26 32 
0 23 21 6 4 27 3 13 26 22 2 19 12 5 1 7 30 28 29 25 31 32 
0 23 21 6 4 26 22 3 13 27 19 12 2 5 1 7 30 28 25 31 32 
0 23 21 6 4 26 22 13 27 3 19 12 2 5 1 7 30 28 25 32 
0 22 23 21 6 4 26 13 27 3 19 12 2 5 1 7 28 25 32 
0 31 25 29 28 11 30 7 1 5 12 19 2 3 13 26 22 23 32 
0 31 25 29 28 11 30 7 1 5 2 12 19 3 13 26 22 23 32 
0 23 22 26 21 6 4 27 13 3 2 12 15 14 5 1 25 32 
0 22 26 23 21 6 4 27 13 3 2 12 15 14 5 1 25 32 
0 23 21 6 4 26 13 27 3 2 12 15 14 5 1 7 31 32 
0 23 26 21 6 4 27 13 3 2 12 15 14 5 1 25 31 32 
0 23 21 6 4 27 13 3 2 12 15 14 5 1 7 28 25 31 32 
0 23 22 26 21 6 4 27 13 3 2 19 12 14 5 1 7 31 32 
0 22 26 23 21 6 4 27 13 3 2 19 12 14 5 1 28 25 32 
0 23 21 6 4 26 13 27 3 2 19 12 14 5 1 7 28 25 31 32 
0 23 26 21 6 4 27 13 3 2 19 12 14 5 1 7 31 32 
0 23 21 6 4 26 22 13 27 3 2 19 12 14 5 1 7 28 25 32 
0 23 21 6 4 27 13 3 2 19 12 14 5 1 7 30 28 25 31 32 
0 23 22 26 21 6 4 13 27 19 16 12 2 5 1 25 31 32 
0 23 21 6 4 27 13 3 2 19 16 12 5 1 7 30 28 25 32 
0 22 23 21 6 4 27 13 3 2 19 16 12 5 1 28 25 32 
0 22 23 21 6 4 27 13 3 19 16 12 2 5 1 25 32 
0 23 21 6 4 27 13 3 2 19 16 15 12 5 1 7 30 28 25 32 
0 23 21 6 4 27 13 3 19 16 15 14 12 5 1 7 28 25 31 32 
0 23 26 22 31 25 29 28 11 30 7 1 5 12 2 3 13 27 4 32 
0 23 26 22 31 25 28 11 30 7 1 5 2 12 19 3 13 27 32 
0 23 26 22 31 25 28 11 30 7 1 5 12 19 2 3 13 27 4 32 
0 22 26 23 21 6 4 27 13 3 2 19 12 5 1 7 30 28 25 31 32 
0 23 21 6 4 27 13 3 2 19 12 5 1 7 30 11 28 29 25 26 32 
0 23 21 6 4 26 22 13 27 3 2 19 12 5 1 7 30 28 29 25 32 
0 22 23 21 6 4 26 13 27 3 2 19 12 5 1 7 30 28 25 32 
0 22 23 21 6 4 26 13 27 3 19 12 2 5 1 7 28 25 32 
0 23 21 6 4 26 22 13 27 3 19 12 2 5 1 7 30 28 25 32 
0 23 22 26 21 6 4 27 13 3 2 19 12 5 1 7 30 28 29 25 32 
0 23 21 6 4 26 13 27 3 2 19 12 5 1 7 30 28 29 25 31 32 
0 23 26 21 6 4 27 13 3 2 19 12 5 1 7 30 28 29 25 32 
0 23 22 26 21 6 4 27 13 3 19 12 2 5 1 7 28 29 25 32 
0 23 22 26 21 6 4 27 13 3 2 12 15 14 5 1 25 32 
0 22 26 23 21 6 4 27 13 3 2 12 15 14 5 1 25 32 
0 23 21 6 4 26 13 27 3 2 12 15 14 5 1 7 31 32 
0 23 26 21 6 4 27 13 3 2 12 15 14 5 1 25 31 32 
0 23 21 6 4 27 13 3 2 12 15 14 5 1 7 28 25 31 32 
0 23 22 26 21 6 4 27 13 3 2 19 12 14 5 1 7 31 32 
0 22 26 23 21 6 4 27 13 3 2 19 12 14 5 1 28 25 32 
0 23 21 6 4 26 22 13 27 3 2 19 12 14 5 1 7 28 25 32 
0 23 26 21 6 4 27 13 3 2 19 12 14 5 1 7 31 32 
0 23 21 6 4 27 13 3 2 19 12 14 5 1 7 30 28 25 31 32 
0 23 21 6 4 26 13 27 3 2 19 12 14 5 1 7 28 25 31 32 
0 23 22 26 21 6 4 13 27 19 16 12 2 5 1 25 31 32 
0 22 23 21 6 4 27 13 3 2 19 16 12 5 1 28 25 32 
0 23 21 6 4 27 13 3 2 19 16 12 5 1 7 30 28 25 32 
0 22 23 21 6 4 27 13 3 19 16 12 2 5 1 25 32 
0 23 21 6 4 27 13 3 2 19 16 15 12 5 1 7 30 28 25 32 
0 23 21 6 4 27 13 3 2 12 19 16 15 14 5 1 25 32 
